networks/zoo_254_3209/zoo_254_3209-lower.txt
Number of groups: 125
Flow 1: {1 103 0} {103 61 0} {61 47 0} {47 14 0} {14 44 0} {44 171 0} 
Flow 2: {47 174 0} 
Flow 3: {61 60 0} {60 51 0} {51 178 0} 
Flow 4: {127 73 0} {73 200 0} 
Flow 4: {103 127 0} Flow 5: {103 230 0} 
Flow 6: {127 120 0} {120 247 0} 
Flow 7: {127 254 0} 
Flow 8: {2 103 0} Flow 11: {60 187 0} 
Flow 12: {61 188 0} 
Flow 13: {47 67 0} {67 194 0} 
Flow 18: {3 103 0} Flow 23: {4 103 0} Flow 24: {5 103 0} Flow 33: {103 1 0} {1 128 0} 
Flow 33: {6 103 0} Flow 34: {103 3 0} {3 130 0} 
Flow 35: {103 7 0} {7 134 0} 
Flow 36: {47 11 0} {11 138 0} 
Flow 37: {67 18 0} {18 145 0} 
Flow 38: {44 21 0} {21 148 0} 
Flow 39: {127 29 0} {29 156 0} 
Flow 40: {127 31 0} {31 158 0} 
Flow 41: {127 33 0} {33 160 0} 
Flow 45: {73 53 0} {53 180 0} 
Flow 46: {51 58 0} {58 185 0} 
Flow 51: {73 81 0} {81 208 0} 
Flow 52: {73 82 0} {82 209 0} 
Flow 53: {73 83 0} {83 210 0} 
Flow 54: {73 87 0} {87 214 0} 
Flow 55: {73 89 0} {89 216 0} 
Flow 56: {44 98 0} {98 225 0} 
Flow 58: {127 107 0} {107 234 0} 
Flow 59: {127 109 0} {109 236 0} 
Flow 60: {44 116 0} {116 243 0} 
Flow 61: {44 118 0} {118 245 0} 
Flow 63: {120 122 0} {122 249 0} 
Flow 64: {120 125 0} {125 252 0} 
Flow 66: {7 103 0} Flow 73: {9 103 0} Flow 82: {10 103 0} Flow 85: {11 14 0} Flow 86: {11 47 0} Flow 87: {11 60 0} Flow 89: {60 61 0} Flow 91: {51 73 0} Flow 92: {61 103 0} Flow 93: {73 127 0} Flow 95: {12 67 0} {67 47 0} Flow 98: {47 61 0} Flow 101: {13 14 0} Flow 102: {14 47 0} Flow 103: {14 11 0} Flow 112: {103 2 0} {2 129 0} 
Flow 114: {103 4 0} {4 131 0} 
Flow 115: {103 5 0} {5 132 0} 
Flow 116: {103 6 0} {6 133 0} 
Flow 118: {103 8 0} {8 135 0} 
Flow 119: {103 9 0} {9 136 0} 
Flow 120: {103 10 0} {10 137 0} 
Flow 122: {67 12 0} {12 139 0} 
Flow 123: {14 13 0} {13 140 0} 
Flow 124: {67 15 0} {15 142 0} 
Flow 125: {67 17 0} {17 144 0} 
Flow 127: {14 19 0} {19 146 0} 
Flow 128: {14 20 0} {20 147 0} 
Flow 130: {44 22 0} {22 149 0} 
Flow 131: {44 24 0} {24 151 0} 
Flow 132: {44 25 0} {25 152 0} 
Flow 133: {44 26 0} {26 153 0} 
Flow 134: {44 27 0} {27 154 0} 
Flow 135: {127 28 0} {28 155 0} 
Flow 137: {127 30 0} {30 157 0} 
Flow 139: {127 32 0} {32 159 0} 
Flow 141: {127 34 0} {34 161 0} 
Flow 142: {127 35 0} {35 162 0} 
Flow 143: {127 36 0} {36 163 0} 
Flow 144: {127 37 0} {37 164 0} 
Flow 145: {44 38 0} {38 165 0} 
Flow 146: {44 39 0} {39 166 0} 
Flow 147: {14 40 0} {40 167 0} 
Flow 148: {14 41 0} {41 168 0} 
Flow 149: {14 42 0} {42 169 0} 
Flow 150: {14 43 0} {43 170 0} 
Flow 152: {44 45 0} {45 172 0} 
Flow 153: {14 46 0} {46 173 0} 
Flow 155: {51 48 0} {48 175 0} 
Flow 156: {51 49 0} {49 176 0} 
Flow 157: {51 50 0} {50 177 0} 
Flow 159: {73 52 0} {52 179 0} 
Flow 161: {73 54 0} {54 181 0} 
Flow 162: {73 55 0} {55 182 0} 
Flow 163: {51 56 0} {56 183 0} 
Flow 164: {51 57 0} {57 184 0} 
Flow 166: {51 59 0} {59 186 0} 
Flow 169: {51 62 0} {62 189 0} 
Flow 170: {51 63 0} {63 190 0} 
Flow 171: {51 64 0} {64 191 0} 
Flow 172: {51 65 0} {65 192 0} 
Flow 173: {44 66 0} {66 193 0} 
Flow 175: {67 68 0} {68 195 0} 
Flow 176: {44 69 0} {69 196 0} 
Flow 177: {73 70 0} {70 197 0} 
Flow 178: {73 71 0} {71 198 0} 
Flow 179: {73 72 0} {72 199 0} 
Flow 181: {73 74 0} {74 201 0} 
Flow 182: {73 75 0} {75 202 0} 
Flow 183: {73 76 0} {76 203 0} 
Flow 184: {73 78 0} {78 205 0} 
Flow 185: {73 79 0} {79 206 0} 
Flow 186: {73 80 0} {80 207 0} 
Flow 190: {73 84 0} {84 211 0} 
Flow 191: {73 86 0} {86 213 0} 
Flow 193: {73 88 0} {88 215 0} 
Flow 195: {44 90 0} {90 217 0} 
Flow 196: {44 92 0} {92 219 0} 
Flow 197: {44 93 0} {93 220 0} 
Flow 198: {44 94 0} {94 221 0} 
Flow 199: {44 95 0} {95 222 0} 
Flow 200: {44 96 0} {96 223 0} 
Flow 201: {44 97 0} {97 224 0} 
Flow 203: {44 99 0} {99 226 0} 
Flow 204: {44 100 0} {100 227 0} 
Flow 205: {44 101 0} {101 228 0} 
Flow 206: {103 102 0} {102 229 0} 
Flow 208: {127 104 0} {104 231 0} 
Flow 209: {127 106 0} {106 233 0} 
Flow 211: {127 108 0} {108 235 0} 
Flow 213: {127 110 0} {110 237 0} 
Flow 214: {127 111 0} {111 238 0} 
Flow 215: {127 112 0} {112 239 0} 
Flow 216: {127 113 0} {113 240 0} 
Flow 217: {44 114 0} {114 241 0} 
Flow 218: {44 115 0} {115 242 0} 
Flow 220: {44 117 0} {117 244 0} 
Flow 222: {44 119 0} {119 246 0} 
Flow 225: {120 123 0} {123 250 0} 
Flow 226: {120 124 0} {124 251 0} 
Flow 228: {120 126 0} {126 253 0} 
Flow 230: {16 67 0} Flow 237: {17 67 0} Flow 285: {18 67 0} Flow 296: {19 14 0} Flow 311: {20 14 0} Flow 361: {21 44 0} Flow 363: {44 14 0} Flow 370: {22 44 0} Flow 391: {23 44 0} Flow 401: {24 44 0} Flow 407: {25 44 0} Flow 413: {26 44 0} Flow 419: {27 44 0} Flow 424: {28 127 0} {127 103 0} Flow 426: {73 51 0} {51 60 0} {60 11 0} Flow 447: {29 127 0} Flow 497: {30 127 0} Flow 502: {31 127 0} Flow 529: {32 127 0} Flow 557: {33 127 0} Flow 567: {34 127 0} Flow 570: {35 127 0} Flow 615: {36 127 0} Flow 621: {37 127 0} Flow 630: {38 44 0} Flow 658: {39 44 0} Flow 664: {40 14 0} Flow 715: {41 14 0} Flow 718: {42 14 0} Flow 726: {43 14 0} Flow 774: {14 141 0} 
Flow 776: {67 16 0} {16 143 0} 
Flow 835: {73 77 0} {77 204 0} 
Flow 843: {73 85 0} {85 212 0} 
Flow 862: {127 105 0} {105 232 0} 
Flow 878: {120 121 0} {121 248 0} 
Flow 885: {46 14 0} Flow 1045: {48 51 0} Flow 1072: {49 51 0} Flow 1081: {50 51 0} Flow 1208: {52 73 0} Flow 1218: {54 73 0} Flow 1272: {55 73 0} Flow 1308: {56 51 0} Flow 1359: {57 51 0} Flow 1366: {58 51 0} Flow 1399: {59 51 0} Flow 1539: {62 51 0} Flow 1546: {63 51 0} Flow 1552: {64 51 0} Flow 1557: {65 51 0} Flow 1566: {66 44 0} Flow 1726: {68 67 0} Flow 1727: {69 44 0} Flow 1775: {70 73 0} Flow 1781: {71 73 0} Flow 1792: {72 73 0} Flow 1967: {74 73 0} Flow 2017: {75 73 0} Flow 2045: {76 73 0} Flow 2074: {77 73 0} Flow 2079: {78 73 0} Flow 2088: {79 73 0} Flow 2097: {80 73 0} Flow 2108: {81 73 0} Flow 2154: {82 73 0} Flow 2164: {83 73 0} Flow 2175: {84 73 0} Flow 2184: {85 73 0} Flow 2236: {86 73 0} Flow 2245: {87 73 0} Flow 2260: {88 73 0} Flow 2290: {89 73 0} Flow 2312: {90 44 0} Flow 2323: {91 44 0} Flow 2334: {92 44 0} Flow 2343: {93 44 0} Flow 2353: {94 44 0} Flow 2384: {95 44 0} Flow 2408: {96 44 0} Flow 2461: {97 44 0} Flow 2472: {98 44 0} Flow 2505: {99 44 0} Flow 2514: {100 44 0} Flow 2520: {101 44 0} Flow 2530: {102 103 0} Flow 2660: {104 127 0} Flow 2687: {105 127 0} Flow 2698: {106 127 0} Flow 2708: {107 127 0} Flow 2718: {108 127 0} Flow 2724: {109 127 0} Flow 2761: {110 127 0} Flow 2790: {111 127 0} Flow 2814: {112 127 0} Flow 2824: {113 127 0} Flow 2835: {115 44 0} Flow 2842: {116 44 0} Flow 2853: {117 44 0} Flow 2884: {118 44 0} Flow 2931: {119 44 0} Flow 2939: {120 127 0} Flow 2985: {121 120 0} Flow 3013: {122 120 0} Flow 3022: {123 120 0} Flow 3033: {124 120 0} Flow 3042: {125 120 0} Flow 3052: {126 120 0} Time taken running everything: 0 seconds
